Version identifier: 22.1.0.0 | 2022-03-09 | 1a383f8ce
CPXPARAM_Threads                                 1
CPXPARAM_MIP_Strategy_VariableSelect             3
CPXPARAM_TimeLimit                               599.99989244699998
1 of 1 MIP starts provided solutions.
MIP start 'm1' defined initial solution with objective 239.0000.
Tried aggregator 1 time.
MIP Presolve eliminated 726 rows and 1428 columns.
MIP Presolve modified 2 coefficients.
Reduced MIP has 2142 rows, 2856 columns, and 28454 nonzeros.
Reduced MIP has 2856 binaries, 0 generals, 0 SOSs, and 0 indicators.
Presolve time = 0.02 sec. (17.46 ticks)
Probing time = 0.00 sec. (2.72 ticks)
Tried aggregator 1 time.
Detecting symmetries...
Reduced MIP has 2142 rows, 2856 columns, and 28454 nonzeros.
Reduced MIP has 2856 binaries, 0 generals, 0 SOSs, and 0 indicators.
Presolve time = 0.02 sec. (15.76 ticks)
Probing time = 0.00 sec. (2.72 ticks)
Clique table members: 1068.
MIP emphasis: balance optimality and feasibility.
MIP search method: dynamic search.
Parallel mode: none, using 1 thread.
Root relaxation solution time = 0.04 sec. (41.17 ticks)

        Nodes                                         Cuts/
   Node  Left     Objective  IInf  Best Integer    Best Bound    ItCnt     Gap

*     0+    0                          239.0000     2856.0000              --- 
      0     0      357.0000   108      239.0000      357.0000     1023   49.37%
*     0+    0                          357.0000      357.0000             0.00%
      0     0        cutoff            357.0000      357.0000     1023    0.00%
Elapsed time = 0.25 sec. (233.80 ticks, tree = 0.01 MB, solutions = 2)

Root node processing (before b&c):
  Real time             =    0.25 sec. (233.97 ticks)
Sequential b&c:
  Real time             =    0.00 sec. (0.00 ticks)
                          ------------
Total (root+branch&cut) =    0.25 sec. (233.97 ticks)
Primal:	357
Dual:	357
Status:	Optimal
Time:	0.28
Sequence:
	5
	0
	5
	9
	9
	5
	9
	9
	9
	9
	10
	9
	10
	9
	10
	8
	10
	9
	10
	9
	4
	5
	0
	5
	9
	5
	9
	0
	1
	4
	5
	9
	5
	9
	5
	9
	5
	0
	5
	4
	0
	5
	9
	9
	5
	4
	9
	5
	0
	5
	9
	5
	0
	5
	4
	1
	0
	5
	9
	0
	9
	1
	0
	5
	9
	1
	0
	5
	9
	1
	4
	0
	5
	9
	5
	0
	9
	5
	8
	1
	9
	9
	9
	1
	9
	9
	5
	9
	1
	9
	2
	5
	4
	10
	4
	5
	9
	4
	5
	0
	5
	9
	4
	5
	0
	4
	5
	9
	0
	4
	5
	0
	1
	9
	5
	4
	0
	4
	5
	9
	1
	2
	9
	4
	4
	9
	0
	4
	4
	1
	4
	4
	1
	4
	4
	0
	4
	4
	9
	4
	4
	9
	9
	9
	5
	9
	9
	9
	9
	9
	9
	9
	9
	9
	9
	9
	9
	9
	9
	9
	9
	9
	0
	10
	9
	4
	5
	9
	9
	9
	9
	9
	9
	5
	9
	5
	9
	4
	5
	0
	4
	9
	9
	0
	9
	4
	9
	8
	4
	10
	4
	0
	4
	1
	4
	0
	5
	9
	0
	9
	5
	9
	0
	5
	9
	9
	5
	9
	5
	0
	5
	9
	5
	0
	4
	5
	0
	5
	4
	0
	4
	10
	9
	0
	4
	4
	1
	4
	0
	4
	5
	0
	9
	1
	4
	1
	0
	10
	4
	10
	0
	10
	4
	0
	1
	9
	5
	9
	5
	0
	9
	9
	5
	9
	5
	9
	1
	0
	9
	5
	9
	0
	4
	9
	5
	0
	1
	4
	0
	1
	9
	9
	0
	9
	9
	0
	9
	9
	0
	9
	9
	9
	0
	9
	9
	5
	0
	9
	4
	5
	0
	5
	9
	0
	1
	4
	0
	9
	5
	9
	0
	1
	4
	0
	5
	4
	0
	9
	1
	8
	1
	4
	0
	1
	9
	5
	0
	1
	9
	5
	0
	1
	9
	10
	9
	10
	0
	9
	5
	2
	5
	9
	1
	0
	4
	4
	1
	4
	0
	5
	9
	4
	4
	9
	1
	0
	1
	4
	5
	0
	5
	4
	10
	0
	5
	9
	5
